
Gurobi 7.5.2 (linux64) logging started Sat Jun 23 16:25:59 2018

Changed value of parameter LogFile to result/ilp/simNo_1-n_100-m_40-s_4-minVAF_0.05-cov_2000-k_2-fn_0.25-fp_0.0001-na_0.15.ILP.gurobiSolverLog
   Prev: gurobi.log  Default: 
Changed value of parameter TimeLimit to 86400.0
   Prev: 1e+100  Min: 0.0  Max: 1e+100  Default: 1e+100
Optimize a model with 1265601 rows, 330440 columns and 3489120 nonzeros
Variable types: 0 continuous, 330440 integer (330440 binary)
Coefficient statistics:
  Matrix range     [2e-03, 3e+00]
  Objective range  [1e+00, 2e+01]
  Bounds range     [1e+00, 1e+00]
  RHS range        [2e-01, 2e+00]
Found heuristic solution: objective -15389.38918
Presolve removed 329283 rows and 213145 columns (presolve time = 5s) ...
Presolve removed 329793 rows and 213145 columns (presolve time = 10s) ...
Presolve removed 329793 rows and 213145 columns (presolve time = 15s) ...
Presolve removed 329793 rows and 213145 columns (presolve time = 20s) ...
Presolve removed 329793 rows and 213145 columns (presolve time = 29s) ...
Presolve removed 329793 rows and 213145 columns (presolve time = 31s) ...
Presolve removed 329793 rows and 213145 columns
Presolve time: 30.87s
Presolved: 935808 rows, 117295 columns, 2593200 nonzeros
Variable types: 0 continuous, 117295 integer (117295 binary)
Presolved: 117295 rows, 1053103 columns, 2710495 nonzeros

Presolve removed 117295 rows and 1053103 columns

Root simplex log...

Iteration    Objective       Primal Inf.    Dual Inf.      Time
       0    4.8464318e+01   0.000000e+00   1.016490e+05     41s
   15848   -2.0746460e+02   0.000000e+00   2.607943e+05     45s
   24488   -2.2428189e+02   0.000000e+00   7.729796e+05     50s
   33128   -2.3956313e+02   0.000000e+00   4.625976e+05     56s
   40616   -2.5121948e+02   0.000000e+00   7.221156e+04     60s
   48104   -2.6279288e+02   0.000000e+00   3.249914e+05     65s
   54440   -2.6961394e+02   0.000000e+00   2.871558e+05     70s
   61928   -2.8137494e+02   0.000000e+00   2.167540e+05     75s
   69992   -2.8871010e+02   0.000000e+00   1.068348e+05     80s
   79208   -2.9823076e+02   0.000000e+00   1.382586e+06     85s
   87848   -3.1023624e+02   0.000000e+00   1.092948e+05     90s
   98216   -3.2551350e+02   0.000000e+00   1.057750e+04     95s
  101957   -3.2988089e+02   0.000000e+00   0.000000e+00     97s
  101957   -3.2988089e+02   0.000000e+00   0.000000e+00    100s

Root relaxation: objective -3.298809e+02, 101957 iterations, 65.97 seconds
Total elapsed time = 195.84s
Total elapsed time = 228.31s

    Nodes    |    Current Node    |     Objective Bounds      |     Work
 Expl Unexpl |  Obj  Depth IntInf | Incumbent    BestBd   Gap | It/Node Time

     0     0 -329.88089    0 2113 -15389.389 -329.88089  97.9%     -  253s
H    0     0                    -426.9068528 -329.88089  22.7%     -  530s
     0     0 -333.90820    0 2090 -426.90685 -333.90820  21.8%     -  806s
H    0     0                    -419.7492023 -333.90820  20.5%     - 1031s
     0     0 -333.90820    0 2091 -419.74920 -333.90820  20.5%     - 1035s
     0     0 -336.84656    0 2087 -419.74920 -336.84656  19.8%     - 1232s
     0     0 -336.84656    0 2078 -419.74920 -336.84656  19.8%     - 1509s
     0     0 -338.56061    0 2086 -419.74920 -338.56061  19.3%     - 1759s
     0     0 -338.56061    0 2087 -419.74920 -338.56061  19.3%     - 2126s
     0     0 -340.27466    0 2066 -419.74920 -340.27466  18.9%     - 2332s
     0     0 -340.27466    0 2070 -419.74920 -340.27466  18.9%     - 2718s
     0     0 -340.76438    0 2070 -419.74920 -340.76438  18.8%     - 2755s
     0     0 -340.91511    0 2474 -419.74920 -340.91511  18.8%     - 3448s
     0     0 -340.91511    0 2473 -419.74920 -340.91511  18.8%     - 3469s
     0     0 -342.15194    0 2095 -419.74920 -342.15194  18.5%     - 3631s
     0     0 -342.64167    0 2094 -419.74920 -342.64167  18.4%     - 4049s
     0     0 -342.64167    0 2127 -419.74920 -342.64167  18.4%     - 4062s
     0     0 -343.37626    0 2097 -419.74920 -343.37626  18.2%     - 4132s
     0     0 -343.37626    0 2099 -419.74920 -343.37626  18.2%     - 4637s
     0     0 -344.76523    0 2553 -419.74920 -344.76523  17.9%     - 5078s
     0     0 -344.82212    0 2069 -419.74920 -344.82212  17.9%     - 5888s
     0     0 -344.84544    0 2073 -419.74920 -344.84544  17.8%     - 5905s
     0     0 -344.86585    0 2076 -419.74920 -344.86585  17.8%     - 5916s
     0     0 -344.89208    0 2074 -419.74920 -344.89208  17.8%     - 5939s
     0     0 -345.87894    0 2013 -419.74920 -345.87894  17.6%     - 6167s
     0     0 -346.04180    0 2002 -419.74920 -346.04180  17.6%     - 6591s
     0     0 -346.04180    0 2003 -419.74920 -346.04180  17.6%     - 6603s
     0     0 -347.44916    0 2104 -419.74920 -347.44916  17.2%     - 6708s
     0     0 -347.65205    0 2561 -419.74920 -347.65205  17.2%     - 7002s
     0     0 -347.69287    0 2569 -419.74920 -347.69287  17.2%     - 7018s
     0     0 -347.69287    0 2570 -419.74920 -347.69287  17.2%     - 7027s
     0     0 -348.65206    0 2127 -419.74920 -348.65206  16.9%     - 7164s
     0     0 -349.17174    0 2162 -419.74920 -349.17174  16.8%     - 7598s
     0     0 -349.20189    0 2168 -419.74920 -349.20189  16.8%     - 7626s
     0     0 -349.20189    0 2169 -419.74920 -349.20189  16.8%     - 7634s
     0     0 -350.85229    0 2496 -419.74920 -350.85229  16.4%     - 7765s
     0     0 -351.24221    0 2486 -419.74920 -351.24221  16.3%     - 8300s
     0     0 -351.27060    0 2484 -419.74920 -351.27060  16.3%     - 8311s
     0     0 -351.28544    0 2495 -419.74920 -351.28544  16.3%     - 8321s
     0     0 -351.28544    0 2496 -419.74920 -351.28544  16.3%     - 8329s
     0     0 -352.04309    0 2506 -419.74920 -352.04309  16.1%     - 8385s
     0     0 -352.24803    0 2505 -419.74920 -352.24803  16.1%     - 8804s
     0     0 -352.27524    0 2504 -419.74920 -352.27524  16.1%     - 8816s
     0     0 -352.27884    0 2507 -419.74920 -352.27884  16.1%     - 8828s
     0     0 -352.28068    0 2510 -419.74920 -352.28068  16.1%     - 8838s
     0     0 -353.28703    0 2015 -419.74920 -353.28703  15.8%     - 9072s
     0     0 -353.34223    0 2015 -419.74920 -353.34223  15.8%     - 9448s
     0     0 -353.38641    0 2025 -419.74920 -353.38641  15.8%     - 9489s
     0     0 -353.41969    0 2026 -419.74920 -353.41969  15.8%     - 9508s
     0     0 -353.46948    0 2027 -419.74920 -353.46948  15.8%     - 9544s
     0     0 -353.47122    0 2032 -419.74920 -353.47122  15.8%     - 9553s
     0     0 -355.00603    0 1969 -419.74920 -355.00603  15.4%     - 9875s
     0     0 -355.14416    0 1952 -419.74920 -355.14416  15.4%     - 10152s
     0     0 -355.16237    0 1944 -419.74920 -355.16237  15.4%     - 10183s
     0     0 -355.17756    0 1943 -419.74920 -355.17756  15.4%     - 10219s
     0     0 -355.19175    0 1941 -419.74920 -355.19175  15.4%     - 10239s
     0     0 -355.19901    0 1946 -419.74920 -355.19901  15.4%     - 10258s
     0     0 -355.19920    0 1949 -419.74920 -355.19920  15.4%     - 10267s
     0     0 -355.70708    0 2116 -419.74920 -355.70708  15.3%     - 10406s
     0     0 -355.76875    0 2018 -419.74920 -355.76875  15.2%     - 11054s
     0     0 -355.82274    0 2117 -419.74920 -355.82274  15.2%     - 11098s
     0     0 -355.83574    0 2126 -419.74920 -355.83574  15.2%     - 11135s
     0     0 -355.83574    0 2127 -419.74920 -355.83574  15.2%     - 11142s
     0     0 -357.05152    0 2508 -419.74920 -357.05152  14.9%     - 11475s
     0     0 -357.08699    0 2609 -419.74920 -357.08699  14.9%     - 11842s
     0     0 -357.10731    0 2603 -419.74920 -357.10731  14.9%     - 11855s
     0     0 -357.10742    0 2608 -419.74920 -357.10742  14.9%     - 11864s
     0     0 -357.29394    0 2608 -419.74920 -357.29394  14.9%     - 11909s
     0     0 -357.71369    0 2138 -419.74920 -357.71369  14.8%     - 12932s
     0     0 -357.74455    0 2141 -419.74920 -357.74455  14.8%     - 12980s
     0     0 -357.75767    0 2621 -419.74920 -357.75767  14.8%     - 13011s
     0     0 -357.75770    0 2651 -419.74920 -357.75770  14.8%     - 13026s
     0     0 -359.13530    0 2050 -419.74920 -359.13530  14.4%     - 13194s
     0     0 -359.35524    0 2043 -419.74920 -359.35524  14.4%     - 13523s
     0     0 -359.43547    0 2640 -419.74920 -359.43547  14.4%     - 13739s
     0     0 -359.47593    0 2643 -419.74920 -359.47593  14.4%     - 13800s
     0     0 -359.47910    0 2646 -419.74920 -359.47910  14.4%     - 13824s
     0     0 -359.48580    0 2626 -419.74920 -359.48580  14.4%     - 13838s
     0     0 -359.48580    0 2630 -419.74920 -359.48580  14.4%     - 13845s
     0     0 -360.06929    0 2546 -419.74920 -360.06929  14.2%     - 13918s
     0     0 -360.18915    0 2549 -419.74920 -360.18915  14.2%     - 14285s
     0     0 -360.33744    0 2569 -419.74920 -360.33744  14.2%     - 14304s
     0     0 -360.33913    0 2562 -419.74920 -360.33913  14.2%     - 14314s
     0     0 -361.07345    0 2635 -419.74920 -361.07345  14.0%     - 14730s
     0     0 -361.13996    0 2627 -419.74920 -361.13996  14.0%     - 15141s
     0     0 -361.15605    0 2621 -419.74920 -361.15605  14.0%     - 15161s
     0     0 -361.15605    0 2622 -419.74920 -361.15605  14.0%     - 15170s
     0     0 -361.64787    0 2581 -419.74920 -361.64787  13.8%     - 15263s
     0     0 -361.92366    0 2608 -419.74920 -361.92366  13.8%     - 15756s
     0     0 -361.95885    0 2561 -419.74920 -361.95885  13.8%     - 15818s
     0     0 -361.96410    0 1978 -419.74920 -361.96410  13.8%     - 15859s
     0     0 -361.96421    0 2621 -419.74920 -361.96421  13.8%     - 15877s
     0     0 -362.69323    0 2038 -419.74920 -362.69323  13.6%     - 16164s
     0     0 -362.85296    0 2016 -419.74920 -362.85296  13.6%     - 16445s
     0     0 -362.96121    0 2033 -419.74920 -362.96121  13.5%     - 16514s
     0     0 -362.96887    0 2036 -419.74920 -362.96887  13.5%     - 16540s
     0     0 -362.97165    0 2551 -419.74920 -362.97165  13.5%     - 16559s
     0     0 -363.69345    0 2630 -419.74920 -363.69345  13.4%     - 16761s
     0     0 -364.11291    0 2585 -419.74920 -364.11291  13.3%     - 17426s
     0     0 -364.27064    0 2633 -419.74920 -364.27064  13.2%     - 17488s
     0     0 -364.28776    0 2638 -419.74920 -364.28776  13.2%     - 17511s
     0     0 -364.29403    0 2638 -419.74920 -364.29403  13.2%     - 17530s
     0     0 -364.29469    0 2647 -419.74920 -364.29469  13.2%     - 17541s
     0     0 -365.08456    0 2521 -419.74920 -365.08456  13.0%     - 17694s
     0     0 -365.34389    0 2629 -419.74920 -365.34389  13.0%     - 18109s
     0     0 -365.34704    0 2628 -419.74920 -365.34704  13.0%     - 18142s
     0     0 -365.79248    0 2634 -419.74920 -365.79248  12.9%     - 18279s
     0     0 -365.97949    0 2635 -419.74920 -365.97949  12.8%     - 18879s
     0     0 -366.05497    0 2640 -419.74920 -366.05497  12.8%     - 18898s
     0     0 -366.11678    0 2646 -419.74920 -366.11678  12.8%     - 18912s
     0     0 -366.11946    0 2646 -419.74920 -366.11946  12.8%     - 18920s
     0     0 -366.42619    0 2477 -419.74920 -366.42619  12.7%     - 19030s
     0     0 -366.70104    0 2634 -419.74920 -366.70104  12.6%     - 19429s
     0     0 -366.75289    0 2620 -419.74920 -366.75289  12.6%     - 19475s
     0     0 -366.77338    0 2625 -419.74920 -366.77338  12.6%     - 19491s
     0     0 -366.80012    0 2633 -419.74920 -366.80012  12.6%     - 19508s
     0     0 -366.81080    0 2635 -419.74920 -366.81080  12.6%     - 19517s
     0     0 -366.81399    0 2628 -419.74920 -366.81399  12.6%     - 19526s
     0     0 -367.67843    0 2581 -419.74920 -367.67843  12.4%     - 19653s
     0     0 -367.72124    0 2644 -419.74920 -367.72124  12.4%     - 20043s
     0     0 -367.72363    0 2640 -419.74920 -367.72363  12.4%     - 20059s
     0     0 -368.12622    0 2154 -419.74920 -368.12622  12.3%     - 20200s
     0     0 -368.56930    0 2657 -419.74920 -368.56930  12.2%     - 20662s
     0     0 -368.61206    0 2646 -419.74920 -368.61206  12.2%     - 20689s
     0     0 -368.63313    0 2651 -419.74920 -368.63313  12.2%     - 20722s
     0     0 -368.64083    0 2651 -419.74920 -368.64083  12.2%     - 20736s
     0     0 -368.69770    0 2650 -419.74920 -368.69770  12.2%     - 20760s
     0     0 -368.71505    0 2649 -419.74920 -368.71505  12.2%     - 20776s
     0     0 -368.71505    0 2656 -419.74920 -368.71505  12.2%     - 20785s
     0     0 -369.39759    0 2630 -419.74920 -369.39759  12.0%     - 21115s
     0     0 -369.56437    0 2638 -419.74920 -369.56437  12.0%     - 21775s
     0     0 -369.57794    0 2647 -419.74920 -369.57794  12.0%     - 21789s
     0     0 -369.58099    0 2648 -419.74920 -369.58099  12.0%     - 21799s
     0     0 -370.16749    0 2151 -419.74920 -370.16749  11.8%     - 22036s
     0     0 -370.59176    0 2636 -419.74920 -370.59176  11.7%     - 22493s
     0     0 -370.68907    0 2654 -419.74920 -370.68907  11.7%     - 22556s
     0     0 -370.69588    0 2627 -419.74920 -370.69588  11.7%     - 22569s
     0     0 -370.69588    0 2625 -419.74920 -370.69588  11.7%     - 22576s
     0     0 -371.15039    0 2631 -419.74920 -371.15039  11.6%     - 22802s
     0     0 -371.30270    0 2646 -419.74920 -371.30270  11.5%     - 23641s
     0     0 -371.43556    0 2649 -419.74920 -371.43556  11.5%     - 23741s
     0     0 -371.44571    0 2651 -419.74920 -371.44571  11.5%     - 23762s
     0     0 -371.45365    0 2648 -419.74920 -371.45365  11.5%     - 23774s
     0     0 -371.45806    0 2647 -419.74920 -371.45806  11.5%     - 23783s
     0     0 -371.45940    0 2651 -419.74920 -371.45940  11.5%     - 23794s
     0     0 -372.41771    0 2630 -419.74920 -372.41771  11.3%     - 23922s
     0     0 -372.50405    0 2641 -419.74920 -372.50405  11.3%     - 24333s
     0     0 -372.51445    0 2645 -419.74920 -372.51445  11.3%     - 24346s
     0     0 -372.60127    0 2632 -419.74920 -372.60127  11.2%     - 24362s
     0     0 -372.60153    0 2637 -419.74920 -372.60153  11.2%     - 24373s
     0     0 -372.91894    0 2628 -419.74920 -372.91894  11.2%     - 24440s
     0     0 -372.98185    0 2648 -419.74920 -372.98185  11.1%     - 24963s
     0     0 -372.98295    0 2653 -419.74920 -372.98295  11.1%     - 24984s
     0     0 -373.12414    0 2639 -419.74920 -373.12414  11.1%     - 25051s
     0     0 -373.39661    0 2645 -419.74920 -373.39661  11.0%     - 25829s
     0     0 -373.47543    0 2637 -419.74920 -373.47543  11.0%     - 25908s
     0     0 -373.50118    0 2651 -419.74920 -373.50118  11.0%     - 25930s
     0     0 -373.51010    0 2644 -419.74920 -373.51010  11.0%     - 25944s
     0     0 -373.51954    0 2643 -419.74920 -373.51954  11.0%     - 25954s
     0     0 -373.52294    0 2651 -419.74920 -373.52294  11.0%     - 25963s
     0     0 -373.88407    0 2629 -419.74920 -373.88407  10.9%     - 26019s
     0     0 -373.92802    0 2643 -419.74920 -373.92802  10.9%     - 26425s
     0     0 -373.93011    0 2652 -419.74920 -373.93011  10.9%     - 26436s
     0     0 -374.18729    0 2645 -419.74920 -374.18729  10.9%     - 26625s
     0     0 -374.38003    0 2654 -419.74920 -374.38003  10.8%     - 27257s
     0     0 -374.48044    0 2631 -419.74920 -374.48044  10.8%     - 27273s
     0     0 -374.48822    0 2650 -419.74920 -374.48822  10.8%     - 27283s
     0     0 -374.51038    0 2651 -419.74920 -374.51038  10.8%     - 27294s
     0     0 -374.51543    0 2651 -419.74920 -374.51543  10.8%     - 27304s
     0     0 -374.51597    0 2656 -419.74920 -374.51597  10.8%     - 27312s
     0     0 -375.16927    0 2627 -419.74920 -375.16927  10.6%     - 27384s
     0     0 -375.35546    0 2632 -419.74920 -375.35546  10.6%     - 27883s
     0     0 -375.36342    0 2633 -419.74920 -375.36342  10.6%     - 27898s
     0     0 -375.36606    0 2639 -419.74920 -375.36606  10.6%     - 27910s
     0     0 -375.68532    0 2612 -419.74920 -375.68532  10.5%     - 27986s
     0     0 -376.02087    0 2617 -419.74920 -376.02087  10.4%     - 28978s
     0     0 -376.07545    0 2627 -419.74920 -376.07545  10.4%     - 29025s
     0     0 -376.08696    0 2612 -419.74920 -376.08696  10.4%     - 29050s
     0     0 -376.08749    0 2608 -419.74920 -376.08749  10.4%     - 29066s
     0     0 -376.24323    0 2627 -419.74920 -376.24323  10.4%     - 29346s
     0     0 -376.28697    0 2628 -419.74920 -376.28697  10.4%     - 29847s
     0     0 -376.29241    0 2614 -419.74920 -376.29241  10.4%     - 29879s
     0     0 -376.29265    0 2616 -419.74920 -376.29265  10.4%     - 29897s
     0     0 -376.29265    0 2611 -419.74920 -376.29265  10.4%     - 29932s
     0     0 -376.33078    0 2619 -419.74920 -376.33078  10.3%     - 30492s
     0     0 -376.35097    0 2629 -419.74920 -376.35097  10.3%     - 30506s
     0     0 -376.36112    0 2627 -419.74920 -376.36112  10.3%     - 30515s
     0     0 -376.36618    0 2629 -419.74920 -376.36618  10.3%     - 30524s
     0     0 -376.36767    0 2626 -419.74920 -376.36767  10.3%     - 30531s
     0     0 -376.67700    0 2622 -419.74920 -376.67700  10.3%     - 30596s
     0     0 -376.70828    0 2621 -419.74920 -376.70828  10.3%     - 31138s
     0     0 -376.72517    0 2622 -419.74920 -376.72517  10.2%     - 31188s
     0     0 -376.74844    0 2623 -419.74920 -376.74844  10.2%     - 31238s
     0     0 -376.75713    0 2635 -419.74920 -376.75713  10.2%     - 31253s
     0     0 -376.75741    0 2630 -419.74920 -376.75741  10.2%     - 31262s
     0     0 -377.24812    0 2613 -419.74920 -377.24812  10.1%     - 31308s
     0     0 -377.24812    0 2620 -419.74920 -377.24812  10.1%     - 31689s
     0     0 -377.29596    0 2614 -419.74920 -377.29596  10.1%     - 31727s
     0     0 -377.29596    0 2592 -419.74920 -377.29596  10.1%     - 32058s
     0     2 -377.29767    0 2583 -419.74920 -377.29767  10.1%     - 32547s
     1     3 -377.67999    1 2525 -419.74920 -377.30574  10.1%  3172 32554s
     2     4 -377.72727    2 2536 -419.74920 -377.30574  10.1%  1858 32557s
     3     5 -387.59808    2 1910 -419.74920 -377.30574  10.1%  4867 32664s
     4     6 -388.26844    3 1724 -419.74920 -377.30574  10.1%  3916 32673s
     5     7 -391.91296    4 1159 -419.74920 -377.30574  10.1%  3329 32682s
     6     8 -396.32051    5 1155 -419.74920 -377.30574  10.1%  2944 32690s
     7     9 -403.66642    5 1066 -419.74920 -377.30574  10.1%  3043 32715s
     9    11 -407.33937    7 1051 -419.74920 -377.30574  10.1%  2453 32722s
    10    12 -408.07396    7 1028 -419.74920 -377.30574  10.1%  2301 32727s
    12    12     cutoff    8      -419.74920 -377.30574  10.1%  2813 32799s
    13    13 -409.05342    9 1026 -419.74920 -377.30574  10.1%  2610 32801s
    14    12     cutoff    9      -419.74920 -377.30574  10.1%  3129 32869s
    15    13 -411.01233   10 1023 -419.74920 -377.30574  10.1%  2940 32871s
    17    15 -414.93014   12 1006 -419.74920 -377.30574  10.1%  2617 32876s
    20    15 -419.33769   14  983 -419.74920 -377.30574  10.1%  2255 32880s
    23    14 -378.10318    1 1714 -419.74920 -377.72927  10.0%  2155 32905s
    24    15 -381.08601    2 1925 -419.74920 -377.72927  10.0%  5871 35009s
    25    16 -392.88771    2 1249 -419.74920 -377.72927  10.0% 33789 57883s
    26    17 -395.33635    3 1226 -419.74920 -377.72927  10.0% 36426 60317s
    27    18 -397.54012    4 1188 -419.74920 -377.72927  10.0% 40237 63793s
    28    19 -397.51292    4 1227 -419.74920 -377.72927  10.0% 44162 67655s
    29    20 -398.41075    5 1233 -419.74920 -377.72927  10.0% 45817 69902s
    30    21 -398.43796    6 1219 -419.74920 -377.72927  10.0% 44324 69916s
    31    22 -400.56011    7 1221 -419.74920 -377.72927  10.0% 47024 73118s
    32    23 -402.19253    7 1187 -419.74920 -377.72927  10.0% 50059 76721s
    33    24 -402.68226    8 1175 -419.74920 -377.72927  10.0% 49307 77196s

Cutting planes:
  Gomory: 4
  Zero half: 1372

Explored 34 nodes (2383667 simplex iterations) in 86400.60 seconds
Thread count was 1 (of 80 available processors)

Solution count 3: -419.749 -426.907 -15389.4 

Time limit reached
Best objective -4.197492023284e+02, best bound -3.777292719379e+02, gap 10.0107%
